rcpsp/heur_output_bi_constraints/Log=5/heurj90.txt
encoding rcpsp/j90.sm/j9042_8.sm nv: 2772491 nc: 5675597 enctime: 48.85
encoding rcpsp/j90.sm/j9042_8.sm nv: 569300 nc: 1162403 enctime: 7.23
c File: j9042_8.smnaivebi5.wcnf
c optimal
c final solution cost: 87
c CPU time: 9.299103
s OPTIMUM FOUND

c File: j9042_8.smbi5.wcnf
c optimal
c final solution cost: 87
c CPU time: 1.578286
s OPTIMUM FOUND


rcpsp/heur_output_bi_constraints/Log=5/heurj90.txt
encoding rcpsp/j90.sm/j9042_9.sm nv: 2295072 nc: 4713457 enctime: 41.48
encoding rcpsp/j90.sm/j9042_9.sm nv: 544344 nc: 1115254 enctime: 6.87
c File: j9042_9.smnaivebi5.wcnf
c optimal
c final solution cost: 82
c CPU time: 55.110383
s OPTIMUM FOUND

c File: j9042_9.smbi5.wcnf
c optimal
c final solution cost: 82
c CPU time: 21.494439
s OPTIMUM FOUND


rcpsp/heur_output_bi_constraints/Log=5/heurj90.txt
encoding rcpsp/j90.sm/j904_2.sm nv: 575148 nc: 1289001 enctime: 15.54
encoding rcpsp/j90.sm/j904_2.sm nv: 91840 nc: 202821 enctime: 1.44
c File: j904_2.smnaivebi5.wcnf
c optimal
c final solution cost: 79
c CPU time: 3.200928
s OPTIMUM FOUND

c File: j904_2.smbi5.wcnf
c optimal
c final solution cost: 79
c CPU time: 0.202745
s OPTIMUM FOUND


rcpsp/heur_output_bi_constraints/Log=5/heurj90.txt
encoding rcpsp/j90.sm/j9043_10.sm nv: 3473215 nc: 7071328 enctime: 59.23
encoding rcpsp/j90.sm/j9043_10.sm nv: 586925 nc: 1191740 enctime: 7.74
c File: j9043_10.smnaivebi5.wcnf
c optimal
c final solution cost: 79
c CPU time: 12.236210
s OPTIMUM FOUND

c File: j9043_10.smbi5.wcnf
c optimal
c final solution cost: 79
c CPU time: 1.665832
s OPTIMUM FOUND


rcpsp/heur_output_bi_constraints/Log=5/heurj90.txt
encoding rcpsp/j90.sm/j9043_1.sm nv: 2890000 nc: 5916290 enctime: 50.73
encoding rcpsp/j90.sm/j9043_1.sm nv: 618460 nc: 1263170 enctime: 7.76
c File: j9043_1.smnaivebi5.wcnf
c optimal
c final solution cost: 86
c CPU time: 9.812898
s OPTIMUM FOUND

c File: j9043_1.smbi5.wcnf
c optimal
c final solution cost: 86
c CPU time: 1.751080
s OPTIMUM FOUND


rcpsp/heur_output_bi_constraints/Log=5/heurj90.txt
encoding rcpsp/j90.sm/j9043_2.sm nv: 2972664 nc: 6058155 enctime: 49.87
encoding rcpsp/j90.sm/j9043_2.sm nv: 560880 nc: 1140159 enctime: 7.14
c File: j9043_2.smnaivebi5.wcnf
c optimal
c final solution cost: 81
c CPU time: 9.966808
s OPTIMUM FOUND

c File: j9043_2.smbi5.wcnf
c optimal
c final solution cost: 81
c CPU time: 2.612846
s OPTIMUM FOUND


rcpsp/heur_output_bi_constraints/Log=5/heurj90.txt
encoding rcpsp/j90.sm/j9043_3.sm nv: 3219568 nc: 6552030 enctime: 53.70
encoding rcpsp/j90.sm/j9043_3.sm nv: 678504 nc: 1377840 enctime: 8.47
c File: j9043_3.smnaivebi5.wcnf
c optimal
c final solution cost: 94
c CPU time: 10.728576
s OPTIMUM FOUND

c File: j9043_3.smbi5.wcnf
c optimal
c final solution cost: 94
c CPU time: 1.797188
s OPTIMUM FOUND


rcpsp/heur_output_bi_constraints/Log=5/heurj90.txt
encoding rcpsp/j90.sm/j9043_4.sm nv: 3385856 nc: 6908005 enctime: 57.49
encoding rcpsp/j90.sm/j9043_4.sm nv: 648074 nc: 1319005 enctime: 8.17
c File: j9043_4.smnaivebi5.wcnf
c optimal
c final solution cost: 94
c CPU time: 10.133764
s OPTIMUM FOUND

c File: j9043_4.smbi5.wcnf
c optimal
c final solution cost: 94
c CPU time: 1.578343
s OPTIMUM FOUND


rcpsp/heur_output_bi_constraints/Log=5/heurj90.txt
encoding rcpsp/j90.sm/j9043_5.sm nv: 3698176 nc: 7522871 enctime: 62.04
encoding rcpsp/j90.sm/j9043_5.sm nv: 772861 nc: 1568966 enctime: 9.84
c File: j9043_5.smnaivebi5.wcnf
c optimal
c final solution cost: 98
c CPU time: 12.351425
s OPTIMUM FOUND

c File: j9043_5.smbi5.wcnf
c optimal
c final solution cost: 98
c CPU time: 1.728855
s OPTIMUM FOUND


rcpsp/heur_output_bi_constraints/Log=5/heurj90.txt
encoding rcpsp/j90.sm/j9043_6.sm nv: 2842080 nc: 5820212 enctime: 50.20
encoding rcpsp/j90.sm/j9043_6.sm nv: 607380 nc: 1240832 enctime: 7.57
c File: j9043_6.smnaivebi5.wcnf
c optimal
c final solution cost: 83
c CPU time: 10.118409
s OPTIMUM FOUND

c File: j9043_6.smbi5.wcnf
c optimal
c final solution cost: 83
c CPU time: 4.457308
s OPTIMUM FOUND


rcpsp/heur_output_bi_constraints/Log=5/heurj90.txt
encoding rcpsp/j90.sm/j9043_7.sm nv: 3315956 nc: 6783901 enctime: 58.82
encoding rcpsp/j90.sm/j9043_7.sm nv: 585902 nc: 1195021 enctime: 7.71
c File: j9043_7.smnaivebi5.wcnf
c optimal
c final solution cost: 88
c CPU time: 11.239116
s OPTIMUM FOUND

c File: j9043_7.smbi5.wcnf
c optimal
c final solution cost: 88
c CPU time: 1.668398
s OPTIMUM FOUND


rcpsp/heur_output_bi_constraints/Log=5/heurj90.txt
encoding rcpsp/j90.sm/j9043_8.sm nv: 3092391 nc: 6295713 enctime: 52.59
encoding rcpsp/j90.sm/j9043_8.sm nv: 661266 nc: 1343463 enctime: 8.35
c File: j9043_8.smnaivebi5.wcnf
c optimal
c final solution cost: 99
c CPU time: 10.776950
s OPTIMUM FOUND

c File: j9043_8.smbi5.wcnf
c optimal
c final solution cost: 99
c CPU time: 1.809466
s OPTIMUM FOUND


rcpsp/heur_output_bi_constraints/Log=5/heurj90.txt
encoding rcpsp/j90.sm/j9043_9.sm nv: 3281406 nc: 6675938 enctime: 55.37
encoding rcpsp/j90.sm/j9043_9.sm nv: 606420 nc: 1230686 enctime: 7.72
c File: j9043_9.smnaivebi5.wcnf
c optimal
c final solution cost: 88
c CPU time: 10.152886
s OPTIMUM FOUND

c File: j9043_9.smbi5.wcnf
c optimal
c final solution cost: 88
c CPU time: 1.679862
s OPTIMUM FOUND


rcpsp/heur_output_bi_constraints/Log=5/heurj90.txt
encoding rcpsp/j90.sm/j904_3.sm nv: 685152 nc: 1469616 enctime: 15.93
encoding rcpsp/j90.sm/j904_3.sm nv: 96624 nc: 204522 enctime: 1.42
c File: j904_3.smnaivebi5.wcnf
c optimal
c final solution cost: 62
c CPU time: 3.132908
s OPTIMUM FOUND

c File: j904_3.smbi5.wcnf
c optimal
c final solution cost: 62
c CPU time: 0.217036
s OPTIMUM FOUND


rcpsp/heur_output_bi_constraints/Log=5/heurj90.txt
encoding rcpsp/j90.sm/j9044_10.sm nv: 4166344 nc: 8410847 enctime: 66.39
encoding rcpsp/j90.sm/j9044_10.sm nv: 644371 nc: 1297874 enctime: 8.37
c File: j9044_10.smnaivebi5.wcnf
c optimal
c final solution cost: 71
c CPU time: 10.651852
s OPTIMUM FOUND

c File: j9044_10.smbi5.wcnf
c optimal
c final solution cost: 71
c CPU time: 1.494192
s OPTIMUM FOUND


rcpsp/heur_output_bi_constraints/Log=5/heurj90.txt
encoding rcpsp/j90.sm/j9044_1.sm nv: 4196428 nc: 8521081 enctime: 69.56
encoding rcpsp/j90.sm/j9044_1.sm nv: 813756 nc: 1648889 enctime: 10.47
c File: j9044_1.smnaivebi5.wcnf
c optimal
c final solution cost: 94
c CPU time: 10.935205
s OPTIMUM FOUND

c File: j9044_1.smbi5.wcnf
c optimal
c final solution cost: 94
c CPU time: 1.734264
s OPTIMUM FOUND


rcpsp/heur_output_bi_constraints/Log=5/heurj90.txt
encoding rcpsp/j90.sm/j9044_2.sm nv: 4244924 nc: 8610876 enctime: 71.62
encoding rcpsp/j90.sm/j9044_2.sm nv: 753393 nc: 1524805 enctime: 10.02
c File: j9044_2.smnaivebi5.wcnf
c optimal
c final solution cost: 85
c CPU time: 11.160740
s OPTIMUM FOUND

c File: j9044_2.smbi5.wcnf
c optimal
c final solution cost: 85
c CPU time: 1.489691
s OPTIMUM FOUND


rcpsp/heur_output_bi_constraints/Log=5/heurj90.txt
encoding rcpsp/j90.sm/j9044_3.sm nv: 3716566 nc: 7545129 enctime: 63.32
encoding rcpsp/j90.sm/j9044_3.sm nv: 815102 nc: 1651797 enctime: 10.36
c File: j9044_3.smnaivebi5.wcnf
c optimal
c final solution cost: 101
c CPU time: 9.951351
s OPTIMUM FOUND

c File: j9044_3.smbi5.wcnf
c optimal
c final solution cost: 101
c CPU time: 1.754616
s OPTIMUM FOUND


rcpsp/heur_output_bi_constraints/Log=5/heurj90.txt
encoding rcpsp/j90.sm/j9044_4.sm nv: 4450080 nc: 8981537 enctime: 71.61
encoding rcpsp/j90.sm/j9044_4.sm nv: 834390 nc: 1681127 enctime: 10.94
c File: j9044_4.smnaivebi5.wcnf
c optimal
c final solution cost: 80
c CPU time: 11.370317
s OPTIMUM FOUND

c File: j9044_4.smbi5.wcnf
c optimal
c final solution cost: 80
c CPU time: 1.939380
s OPTIMUM FOUND


rcpsp/heur_output_bi_constraints/Log=5/heurj90.txt
encoding rcpsp/j90.sm/j9044_5.sm nv: 4385855 nc: 8853375 enctime: 71.09
encoding rcpsp/j90.sm/j9044_5.sm nv: 768655 nc: 1548575 enctime: 10.11
c File: j9044_5.smnaivebi5.wcnf
c optimal
c final solution cost: 84
c CPU time: 11.700139
s OPTIMUM FOUND

c File: j9044_5.smbi5.wcnf
c optimal
c final solution cost: 84
c CPU time: 1.387782
s OPTIMUM FOUND


rcpsp/heur_output_bi_constraints/Log=5/heurj90.txt
encoding rcpsp/j90.sm/j9044_6.sm nv: 3898176 nc: 7919236 enctime: 66.25
encoding rcpsp/j90.sm/j9044_6.sm nv: 629472 nc: 1275371 enctime: 8.33
c File: j9044_6.smnaivebi5.wcnf
c optimal
c final solution cost: 80
c CPU time: 11.118482
s OPTIMUM FOUND

c File: j9044_6.smbi5.wcnf
c optimal
c final solution cost: 80
c CPU time: 1.592412
s OPTIMUM FOUND


rcpsp/heur_output_bi_constraints/Log=5/heurj90.txt
encoding rcpsp/j90.sm/j9044_7.sm nv: 3641301 nc: 7375757 enctime: 60.54
encoding rcpsp/j90.sm/j9044_7.sm nv: 657135 nc: 1328295 enctime: 8.44
c File: j9044_7.smnaivebi5.wcnf
c optimal
c final solution cost: 80
c CPU time: 9.545390
s OPTIMUM FOUND

c File: j9044_7.smbi5.wcnf
c optimal
c final solution cost: 80
c CPU time: 1.410371
s OPTIMUM FOUND


rcpsp/heur_output_bi_constraints/Log=5/heurj90.txt
encoding rcpsp/j90.sm/j9044_8.sm nv: 4016265 nc: 8146310 enctime: 67.86
encoding rcpsp/j90.sm/j9044_8.sm nv: 699864 nc: 1416347 enctime: 9.04
c File: j9044_8.smnaivebi5.wcnf
c optimal
c final solution cost: 80
c CPU time: 10.661234
s OPTIMUM FOUND

c File: j9044_8.smbi5.wcnf
c optimal
c final solution cost: 80
c CPU time: 1.464647
s OPTIMUM FOUND


rcpsp/heur_output_bi_constraints/Log=5/heurj90.txt
encoding rcpsp/j90.sm/j9044_9.sm nv: 3549820 nc: 7182733 enctime: 57.58
encoding rcpsp/j90.sm/j9044_9.sm nv: 709964 nc: 1433837 enctime: 8.91
c File: j9044_9.smnaivebi5.wcnf
c optimal
c final solution cost: 81
c CPU time: 9.559249
s OPTIMUM FOUND

c File: j9044_9.smbi5.wcnf
c optimal
c final solution cost: 81
c CPU time: 1.790381
s OPTIMUM FOUND


rcpsp/heur_output_bi_constraints/Log=5/heurj90.txt
encoding rcpsp/j90.sm/j904_4.sm nv: 724160 nc: 1572191 enctime: 17.89
encoding rcpsp/j90.sm/j904_4.sm nv: 124100 nc: 266444 enctime: 1.32
c File: j904_4.smnaivebi5.wcnf
c optimal
c final solution cost: 79
c CPU time: 3.361459
s OPTIMUM FOUND

c File: j904_4.smbi5.wcnf
c optimal
c final solution cost: 79
c CPU time: 0.275866
s OPTIMUM FOUND


rcpsp/heur_output_bi_constraints/Log=5/heurj90.txt
encoding rcpsp/j90.sm/j9045_10.sm nv: 2440872 nc: 5065497 enctime: 46.07
encoding rcpsp/j90.sm/j9045_10.sm nv: 1014692 nc: 2103337 enctime: 15.56
c File: j9045_10.smnaivebi5.wcnf
c timeout
c final solution cost: 185
c CPU time: 66.363069
s UNKNOWN

c File: j9045_10.smbi5.wcnf
c timeout
c final solution cost: 183
c CPU time: 61.912808
s UNKNOWN


rcpsp/heur_output_bi_constraints/Log=5/heurj90.txt
encoding rcpsp/j90.sm/j9045_1.sm nv: 2551719 nc: 5268893 enctime: 48.16
encoding rcpsp/j90.sm/j9045_1.sm nv: 1009527 nc: 2082061 enctime: 14.26
c File: j9045_1.smnaivebi5.wcnf
c timeout
c final solution cost: 376
c CPU time: 66.219007
s UNKNOWN

c File: j9045_1.smbi5.wcnf
c timeout
c final solution cost: 157
c CPU time: 61.814775
s UNKNOWN


rcpsp/heur_output_bi_constraints/Log=5/heurj90.txt
encoding rcpsp/j90.sm/j9045_2.sm nv: 2566872 nc: 5300091 enctime: 48.38
encoding rcpsp/j90.sm/j9045_2.sm nv: 932019 nc: 1921887 enctime: 13.26
c File: j9045_2.smnaivebi5.wcnf
c timeout
c final solution cost: 162
c CPU time: 66.199029
s UNKNOWN

c File: j9045_2.smbi5.wcnf
c timeout
c final solution cost: 160
c CPU time: 61.648499
s UNKNOWN


rcpsp/heur_output_bi_constraints/Log=5/heurj90.txt
encoding rcpsp/j90.sm/j9045_3.sm nv: 1897358 nc: 3916741 enctime: 35.08
encoding rcpsp/j90.sm/j9045_3.sm nv: 868722 nc: 1791639 enctime: 11.80
c File: j9045_3.smnaivebi5.wcnf
c timeout
c final solution cost: 167
c CPU time: 64.588904
s UNKNOWN

c File: j9045_3.smbi5.wcnf
c timeout
c final solution cost: 173
c CPU time: 61.626179
s UNKNOWN


rcpsp/heur_output_bi_constraints/Log=5/heurj90.txt
encoding rcpsp/j90.sm/j9045_4.sm nv: 2226047 nc: 4582093 enctime: 40.60
encoding rcpsp/j90.sm/j9045_4.sm nv: 891393 nc: 1832777 enctime: 12.44
c File: j9045_4.smnaivebi5.wcnf
c timeout
c final solution cost: 151
c CPU time: 65.483414
s UNKNOWN

c File: j9045_4.smbi5.wcnf
c timeout
c final solution cost: 152
c CPU time: 61.595873
s UNKNOWN


rcpsp/heur_output_bi_constraints/Log=5/heurj90.txt
encoding rcpsp/j90.sm/j9045_5.sm nv: 2505636 nc: 5220335 enctime: 49.60
encoding rcpsp/j90.sm/j9045_5.sm nv: 1058848 nc: 2203446 enctime: 15.18
c File: j9045_5.smnaivebi5.wcnf
c timeout
c final solution cost: 223
c CPU time: 66.667328
s UNKNOWN

c File: j9045_5.smbi5.wcnf
c timeout
c final solution cost: 200
c CPU time: 62.112754
s UNKNOWN


rcpsp/heur_output_bi_constraints/Log=5/heurj90.txt
encoding rcpsp/j90.sm/j9045_6.sm nv: 2262703 nc: 4710456 enctime: 44.77
encoding rcpsp/j90.sm/j9045_6.sm nv: 942431 nc: 1959560 enctime: 14.96
c File: j9045_6.smnaivebi5.wcnf
c timeout
c final solution cost: 248
c CPU time: 66.064572
s UNKNOWN

c File: j9045_6.smbi5.wcnf
c timeout
c final solution cost: 198
c CPU time: 61.878425
s UNKNOWN


rcpsp/heur_output_bi_constraints/Log=5/heurj90.txt
encoding rcpsp/j90.sm/j9045_7.sm nv: 2644488 nc: 5452387 enctime: 50.18
encoding rcpsp/j90.sm/j9045_7.sm nv: 907731 nc: 1868981 enctime: 11.55
c File: j9045_7.smnaivebi5.wcnf
c timeout
c final solution cost: 150
c CPU time: 66.368276
s UNKNOWN

c File: j9045_7.smbi5.wcnf
c timeout
c final solution cost: 152
c CPU time: 61.584303
s UNKNOWN


rcpsp/heur_output_bi_constraints/Log=5/heurj90.txt
encoding rcpsp/j90.sm/j9045_8.sm nv: 2238516 nc: 4631856 enctime: 42.15
encoding rcpsp/j90.sm/j9045_8.sm nv: 994896 nc: 2056596 enctime: 13.88
c File: j9045_8.smnaivebi5.wcnf
c timeout
c final solution cost: 201
c CPU time: 65.586988
s UNKNOWN

c File: j9045_8.smbi5.wcnf
c timeout
c final solution cost: 182
c CPU time: 61.826755
s UNKNOWN


rcpsp/heur_output_bi_constraints/Log=5/heurj90.txt
encoding rcpsp/j90.sm/j9045_9.sm nv: 2182297 nc: 4515870 enctime: 41.43
encoding rcpsp/j90.sm/j9045_9.sm nv: 921011 nc: 1903782 enctime: 12.95
c File: j9045_9.smnaivebi5.wcnf
c timeout
c final solution cost: 247
c CPU time: 65.632253
s UNKNOWN

c File: j9045_9.smbi5.wcnf
c timeout
c final solution cost: 170
c CPU time: 61.721802
s UNKNOWN


rcpsp/heur_output_bi_constraints/Log=5/heurj90.txt
encoding rcpsp/j90.sm/j904_5.sm nv: 534290 nc: 1212458 enctime: 16.01
encoding rcpsp/j90.sm/j904_5.sm nv: 94162 nc: 210730 enctime: 1.54
c File: j904_5.smnaivebi5.wcnf
c optimal
c final solution cost: 81
c CPU time: 3.135152
s OPTIMUM FOUND

c File: j904_5.smbi5.wcnf
c optimal
c final solution cost: 81
c CPU time: 0.230514
s OPTIMUM FOUND


rcpsp/heur_output_bi_constraints/Log=5/heurj90.txt
encoding rcpsp/j90.sm/j9046_10.sm nv: 4422850 nc: 9001499 enctime: 76.14
encoding rcpsp/j90.sm/j9046_10.sm nv: 1001400 nc: 2034779 enctime: 12.85
c File: j9046_10.smnaivebi5.wcnf
c optimal
c final solution cost: 114
c CPU time: 15.076777
s OPTIMUM FOUND

c File: j9046_10.smbi5.wcnf
c optimal
c final solution cost: 114
c CPU time: 4.991295
s OPTIMUM FOUND


rcpsp/heur_output_bi_constraints/Log=5/heurj90.txt
encoding rcpsp/j90.sm/j9046_1.sm nv: 3826329 nc: 7797776 enctime: 65.65
encoding rcpsp/j90.sm/j9046_1.sm nv: 890546 nc: 1811844 enctime: 13.16
c File: j9046_1.smnaivebi5.wcnf
c timeout
c final solution cost: 105
c CPU time: 67.775709
s UNKNOWN

c File: j9046_1.smbi5.wcnf
c timeout
c final solution cost: 106
c CPU time: 61.409243
s UNKNOWN


rcpsp/heur_output_bi_constraints/Log=5/heurj90.txt
encoding rcpsp/j90.sm/j9046_2.sm nv: 3569267 nc: 7249876 enctime: 56.02
encoding rcpsp/j90.sm/j9046_2.sm nv: 832572 nc: 1688446 enctime: 10.07
c File: j9046_2.smnaivebi5.wcnf
c timeout
c final solution cost: 87
c CPU time: 66.983526
s UNKNOWN

c File: j9046_2.smbi5.wcnf
c timeout
c final solution cost: 86
c CPU time: 61.220754
s UNKNOWN


rcpsp/heur_output_bi_constraints/Log=5/heurj90.txt
encoding rcpsp/j90.sm/j9046_3.sm nv: 4299312 nc: 8743687 enctime: 66.67
encoding rcpsp/j90.sm/j9046_3.sm nv: 1083160 nc: 2199829 enctime: 12.64
c File: j9046_3.smnaivebi5.wcnf
c timeout
c final solution cost: 107
c CPU time: 68.523897
s UNKNOWN

c File: j9046_3.smbi5.wcnf
c timeout
c final solution cost: 106
c CPU time: 61.666124
s UNKNOWN


